(set-logic QF_BV)
(declare-fun _substvar_209_ () (_ BitVec 16))
(declare-fun _substvar_310_ () (_ BitVec 16))
(declare-fun _substvar_214_ () (_ BitVec 16))
(declare-fun _substvar_336_ () (_ BitVec 8))
(declare-fun _substvar_319_ () (_ BitVec 8))
(assert (let ( (?v_8 ((_ zero_extend 16) _substvar_310_)) (?v_3 ((_ zero_extend 24) _substvar_319_))) (let ((?v_2 (bvadd (bvadd (_ bv0 32) (_ bv1583388 32)) ((_ zero_extend 16) _substvar_214_)))) (let ((?v_4 (bvadd ?v_2 (_ bv6 32)))) (let ((?v_7 (bvadd (bvadd ?v_4 (bvadd ?v_3 (_ bv1 32))) (_ bv2 32)))) (let ((?v_6 (bvadd ?v_7 ((_ zero_extend 16) _substvar_209_)))) (let ((?v_12 (bvadd ?v_6 (_ bv6 32)))) (let ((?v_16 (bvadd ?v_12 (_ bv0 32)))) (let ((?v_5 (bvadd ?v_16 (_ bv2 32)))) (let ((?v_18 (bvadd ?v_5 ?v_8))) (let ((?v_20 (bvadd ?v_18 (_ bv6 32)))) (let ((?v_21 (bvadd ?v_20 (_ bv0 32)))) (and true true (= _substvar_209_ (bvor (_ bv0 16) ((_ zero_extend 8) _substvar_336_))) true (bvsle (_ bv1040 32) (bvsub ?v_21 (_ bv1583192 32))) true true true true true true true (bvule ?v_7 (_ bv1584214 32)) true true true true true true true true true true true true true true true true (bvule (bvadd ?v_21 (_ bv2 32)) (_ bv1584214 32)))))))))))))))
(check-sat)
(exit)
